examples/pyomo/tutorials/param.dat
##
## Sets
##

set A := 2 4 6 8;

set B := 1 2 3;


##
## Parameters
##

param Z := 1.1;

param Y := 
2 3.3
4 3.4
6 3.5
8 3.6
;

param X: 1 2 3 :=
2 1.3 1.4 1.5
4 2.3 2.4 2.5
6 3.3 3.4 3.5
8 4.3 4.4 4.5
;

param T := 1;

param S := 2;
